# Objective value = 53
Z(w(0)_i(0)) 1
Z(w(1)_i(0)) 0
Z(w(2)_i(0)) 1
Z(w(3)_i(0)) 0
Z(w(0)_i(1)) 0
Z(w(1)_i(1)) 1
Z(w(2)_i(1)) 1
Z(w(0)_i(2)) 0
Z(w(1)_i(2)) 0
Z(w(2)_i(2)) 1
Z(w(3)_i(2)) 1
Z(w(0)_i(3)) 1
Z(w(1)_i(3)) 1
Z(w(2)_i(3)) 0
Z(w(3)_i(3)) 0
Z(w(0)_i(4)) 1
Z(w(1)_i(4)) 0
Z(w(2)_i(4)) 1
Z(w(0)_i(5)) 0
Z(w(1)_i(5)) 1
Z(w(2)_i(5)) 1
Z(w(3)_i(5)) 0
Z(w(0)_i(6)) 0
Z(w(1)_i(6)) 1
Z(w(2)_i(6)) 1
Z(w(3)_i(6)) 0
Z(w(0)_i(7)) 1
Z(w(1)_i(7)) 0
Z(w(2)_i(7)) 1
Z(w(3)_i(7)) 0
Z(w(0)_i(8)) 1
Z(w(1)_i(8)) 0
Z(w(2)_i(8)) 1
Z(w(3)_i(8)) 0
Z(w(0)_i(9)) 1
Z(w(1)_i(9)) 0
Z(w(2)_i(9)) 1
Z(w(0)_i(10)) 1
Z(w(1)_i(10)) 0
Z(w(2)_i(10)) 0
Z(w(3)_i(10)) 1
Z(w(0)_i(11)) 1
Z(w(1)_i(11)) 0
Z(w(2)_i(11)) 1
Z(w(0)_i(12)) 1
Z(w(1)_i(12)) 0
Z(w(3)_i(12)) 1
Z(w(0)_i(13)) 0
Z(w(1)_i(13)) 1
Z(w(2)_i(13)) 0
Z(w(3)_i(13)) 0
Z(w(0)_i(14)) 0
Z(w(1)_i(14)) 1
Z(w(2)_i(14)) 0
Z(w(3)_i(14)) 1
Z(w(0)_i(15)) 0
Z(w(1)_i(15)) 1
Z(w(3)_i(15)) 1
Z(w(0)_i(16)) 0
Z(w(1)_i(16)) 1
Z(w(2)_i(16)) 1
Z(w(3)_i(16)) 0
Z(w(0)_i(17)) 0
Z(w(1)_i(17)) 1
Z(w(2)_i(17)) 0
Z(w(3)_i(17)) 1
Z(w(0)_i(18)) 0
Z(w(1)_i(18)) 1
Z(w(2)_i(18)) 0
Z(w(3)_i(18)) 1
Z(w(0)_i(19)) 0
Z(w(1)_i(19)) 1
Z(w(2)_i(19)) 0
Z(w(0)_i(20)) 0
Z(w(1)_i(20)) 1
Z(w(2)_i(20)) 0
Z(w(3)_i(20)) 1
Z(w(0)_i(21)) 1
Z(w(1)_i(21)) 1
Z(w(2)_i(21)) 0
Z(w(3)_i(21)) 0
Z(w(0)_i(22)) 0
Z(w(1)_i(22)) 1
Z(w(2)_i(22)) 1
Z(w(3)_i(22)) 0
Z(w(0)_i(23)) 1
Z(w(3)_i(23)) 1
Z(w(0)_i(24)) 0
Z(w(1)_i(24)) 1
Z(w(2)_i(24)) 0
Z(w(3)_i(24)) 1
Z(w(0)_i(25)) 1
Z(w(1)_i(25)) 0
Z(w(3)_i(25)) 1
Z(w(0)_i(26)) 0
Z(w(1)_i(26)) 0
Z(w(2)_i(26)) 1
Z(w(3)_i(26)) 1
Z(w(0)_i(27)) 0
Z(w(1)_i(27)) 1
Z(w(3)_i(27)) 0
X(s(0)_w(0)_i(0)_t(0)) 1
X(s(0)_w(0)_i(0)_t(1)) 0
X(s(0)_w(1)_i(0)_t(0)) 0
X(s(0)_w(1)_i(0)_t(1)) 0
X(s(0)_w(2)_i(0)_t(0)) 0
X(s(0)_w(2)_i(0)_t(1)) 1
X(s(0)_w(3)_i(0)_t(0)) 0
X(s(0)_w(3)_i(0)_t(1)) 0
X(s(0)_w(0)_i(1)_t(0)) 0
X(s(0)_w(0)_i(1)_t(1)) 0
X(s(0)_w(1)_i(1)_t(0)) 0
X(s(0)_w(1)_i(1)_t(1)) 0
X(s(0)_w(2)_i(1)_t(0)) 0
X(s(0)_w(2)_i(1)_t(1)) 0
X(s(0)_w(0)_i(2)_t(0)) 0
X(s(0)_w(0)_i(2)_t(1)) 0
X(s(0)_w(1)_i(2)_t(0)) 0
X(s(0)_w(1)_i(2)_t(1)) 0
X(s(0)_w(2)_i(2)_t(0)) 0
X(s(0)_w(2)_i(2)_t(1)) 0
X(s(0)_w(3)_i(2)_t(0)) 0
X(s(0)_w(3)_i(2)_t(1)) 0
X(s(0)_w(0)_i(3)_t(0)) 1
X(s(0)_w(0)_i(3)_t(1)) 0
X(s(0)_w(1)_i(3)_t(0)) 0
X(s(0)_w(1)_i(3)_t(1)) 0
X(s(0)_w(2)_i(3)_t(0)) 0
X(s(0)_w(2)_i(3)_t(1)) 0
X(s(0)_w(3)_i(3)_t(0)) 0
X(s(0)_w(3)_i(3)_t(1)) 0
X(s(0)_w(0)_i(4)_t(0)) 1
X(s(0)_w(0)_i(4)_t(1)) 0
X(s(0)_w(1)_i(4)_t(0)) 0
X(s(0)_w(1)_i(4)_t(1)) 0
X(s(0)_w(2)_i(4)_t(0)) 0
X(s(0)_w(2)_i(4)_t(1)) 1
X(s(0)_w(0)_i(5)_t(0)) 0
X(s(0)_w(0)_i(5)_t(1)) 0
X(s(0)_w(1)_i(5)_t(0)) 0
X(s(0)_w(1)_i(5)_t(1)) 0
X(s(0)_w(2)_i(5)_t(0)) 0
X(s(0)_w(2)_i(5)_t(1)) 0
X(s(0)_w(3)_i(5)_t(0)) 0
X(s(0)_w(3)_i(5)_t(1)) 0
X(s(0)_w(0)_i(6)_t(0)) 0
X(s(0)_w(0)_i(6)_t(1)) 0
X(s(0)_w(1)_i(6)_t(0)) 0
X(s(0)_w(1)_i(6)_t(1)) 0
X(s(0)_w(2)_i(6)_t(0)) 0
X(s(0)_w(2)_i(6)_t(1)) 0
X(s(0)_w(3)_i(6)_t(0)) 0
X(s(0)_w(3)_i(6)_t(1)) 0
X(s(0)_w(0)_i(7)_t(0)) 1
X(s(0)_w(0)_i(7)_t(1)) 0
X(s(0)_w(1)_i(7)_t(0)) 0
X(s(0)_w(1)_i(7)_t(1)) 0
X(s(0)_w(2)_i(7)_t(0)) 0
X(s(0)_w(2)_i(7)_t(1)) 1
X(s(0)_w(3)_i(7)_t(0)) 0
X(s(0)_w(3)_i(7)_t(1)) 0
X(s(0)_w(0)_i(8)_t(0)) 1
X(s(0)_w(0)_i(8)_t(1)) 0
X(s(0)_w(1)_i(8)_t(0)) 0
X(s(0)_w(1)_i(8)_t(1)) 0
X(s(0)_w(2)_i(8)_t(0)) 0
X(s(0)_w(2)_i(8)_t(1)) 1
X(s(0)_w(3)_i(8)_t(0)) 0
X(s(0)_w(3)_i(8)_t(1)) 0
X(s(0)_w(0)_i(9)_t(0)) 1
X(s(0)_w(0)_i(9)_t(1)) 0
X(s(0)_w(1)_i(9)_t(0)) 0
X(s(0)_w(1)_i(9)_t(1)) 0
X(s(0)_w(2)_i(9)_t(0)) 0
X(s(0)_w(2)_i(9)_t(1)) 1
X(s(0)_w(0)_i(10)_t(0)) 0
X(s(0)_w(0)_i(10)_t(1)) 0
X(s(0)_w(1)_i(10)_t(0)) 0
X(s(0)_w(1)_i(10)_t(1)) 0
X(s(0)_w(2)_i(10)_t(0)) 0
X(s(0)_w(2)_i(10)_t(1)) 0
X(s(0)_w(3)_i(10)_t(0)) 0
X(s(0)_w(3)_i(10)_t(1)) 0
X(s(0)_w(0)_i(11)_t(0)) 0
X(s(0)_w(0)_i(11)_t(1)) 0
X(s(0)_w(1)_i(11)_t(0)) 0
X(s(0)_w(1)_i(11)_t(1)) 0
X(s(0)_w(2)_i(11)_t(0)) 0
X(s(0)_w(2)_i(11)_t(1)) 0
X(s(0)_w(0)_i(12)_t(0)) 0
X(s(0)_w(0)_i(12)_t(1)) 0
X(s(0)_w(1)_i(12)_t(0)) 0
X(s(0)_w(1)_i(12)_t(1)) 0
X(s(0)_w(3)_i(12)_t(0)) 0
X(s(0)_w(3)_i(12)_t(1)) 0
X(s(0)_w(0)_i(13)_t(0)) 0
X(s(0)_w(0)_i(13)_t(1)) 0
X(s(0)_w(1)_i(13)_t(0)) 0
X(s(0)_w(1)_i(13)_t(1)) 0
X(s(0)_w(2)_i(13)_t(0)) 0
X(s(0)_w(2)_i(13)_t(1)) 0
X(s(0)_w(3)_i(13)_t(0)) 0
X(s(0)_w(3)_i(13)_t(1)) 0
X(s(0)_w(0)_i(14)_t(0)) 0
X(s(0)_w(0)_i(14)_t(1)) 0
X(s(0)_w(1)_i(14)_t(0)) 0
X(s(0)_w(1)_i(14)_t(1)) 0
X(s(0)_w(2)_i(14)_t(0)) 0
X(s(0)_w(2)_i(14)_t(1)) 0
X(s(0)_w(3)_i(14)_t(0)) 0
X(s(0)_w(3)_i(14)_t(1)) 0
X(s(0)_w(0)_i(15)_t(0)) 0
X(s(0)_w(0)_i(15)_t(1)) 0
X(s(0)_w(1)_i(15)_t(0)) 0
X(s(0)_w(1)_i(15)_t(1)) 0
X(s(0)_w(3)_i(15)_t(0)) 0
X(s(0)_w(3)_i(15)_t(1)) 0
X(s(0)_w(0)_i(16)_t(0)) 0
X(s(0)_w(0)_i(16)_t(1)) 0
X(s(0)_w(1)_i(16)_t(0)) 0
X(s(0)_w(1)_i(16)_t(1)) 0
X(s(0)_w(2)_i(16)_t(0)) 0
X(s(0)_w(2)_i(16)_t(1)) 0
X(s(0)_w(3)_i(16)_t(0)) 0
X(s(0)_w(3)_i(16)_t(1)) 0
X(s(0)_w(0)_i(17)_t(0)) 0
X(s(0)_w(0)_i(17)_t(1)) 0
X(s(0)_w(1)_i(17)_t(0)) 0
X(s(0)_w(1)_i(17)_t(1)) 0
X(s(0)_w(2)_i(17)_t(0)) 0
X(s(0)_w(2)_i(17)_t(1)) 0
X(s(0)_w(3)_i(17)_t(0)) 0
X(s(0)_w(3)_i(17)_t(1)) 0
X(s(0)_w(0)_i(18)_t(0)) 0
X(s(0)_w(0)_i(18)_t(1)) 0
X(s(0)_w(1)_i(18)_t(0)) 0
X(s(0)_w(1)_i(18)_t(1)) 0
X(s(0)_w(2)_i(18)_t(0)) 0
X(s(0)_w(2)_i(18)_t(1)) 0
X(s(0)_w(3)_i(18)_t(0)) 0
X(s(0)_w(3)_i(18)_t(1)) 0
X(s(0)_w(0)_i(19)_t(0)) 0
X(s(0)_w(0)_i(19)_t(1)) 0
X(s(0)_w(1)_i(19)_t(0)) 0
X(s(0)_w(1)_i(19)_t(1)) 0
X(s(0)_w(2)_i(19)_t(0)) 0
X(s(0)_w(2)_i(19)_t(1)) 0
X(s(0)_w(0)_i(20)_t(0)) 0
X(s(0)_w(0)_i(20)_t(1)) 0
X(s(0)_w(1)_i(20)_t(0)) 0
X(s(0)_w(1)_i(20)_t(1)) 0
X(s(0)_w(2)_i(20)_t(0)) 0
X(s(0)_w(2)_i(20)_t(1)) 0
X(s(0)_w(3)_i(20)_t(0)) 0
X(s(0)_w(3)_i(20)_t(1)) 0
X(s(0)_w(0)_i(21)_t(0)) 1
X(s(0)_w(0)_i(21)_t(1)) 0
X(s(0)_w(1)_i(21)_t(0)) 0
X(s(0)_w(1)_i(21)_t(1)) 0
X(s(0)_w(2)_i(21)_t(0)) 0
X(s(0)_w(2)_i(21)_t(1)) 0
X(s(0)_w(3)_i(21)_t(0)) 0
X(s(0)_w(3)_i(21)_t(1)) 0
X(s(0)_w(0)_i(22)_t(0)) 0
X(s(0)_w(0)_i(22)_t(1)) 0
X(s(0)_w(1)_i(22)_t(0)) 0
X(s(0)_w(1)_i(22)_t(1)) 0
X(s(0)_w(2)_i(22)_t(0)) 0
X(s(0)_w(2)_i(22)_t(1)) 1
X(s(0)_w(3)_i(22)_t(0)) 0
X(s(0)_w(3)_i(22)_t(1)) 0
X(s(0)_w(0)_i(23)_t(0)) 0
X(s(0)_w(0)_i(23)_t(1)) 0
X(s(0)_w(3)_i(23)_t(0)) 0
X(s(0)_w(3)_i(23)_t(1)) 0
X(s(0)_w(0)_i(24)_t(0)) 0
X(s(0)_w(0)_i(24)_t(1)) 0
X(s(0)_w(1)_i(24)_t(0)) 0
X(s(0)_w(1)_i(24)_t(1)) 0
X(s(0)_w(2)_i(24)_t(0)) 0
X(s(0)_w(2)_i(24)_t(1)) 0
X(s(0)_w(3)_i(24)_t(0)) 0
X(s(0)_w(3)_i(24)_t(1)) 0
X(s(0)_w(0)_i(25)_t(0)) 1
X(s(0)_w(0)_i(25)_t(1)) 0
X(s(0)_w(1)_i(25)_t(0)) 0
X(s(0)_w(1)_i(25)_t(1)) 0
X(s(0)_w(3)_i(25)_t(0)) 0
X(s(0)_w(3)_i(25)_t(1)) 0
X(s(0)_w(0)_i(26)_t(0)) 0
X(s(0)_w(0)_i(26)_t(1)) 0
X(s(0)_w(1)_i(26)_t(0)) 0
X(s(0)_w(1)_i(26)_t(1)) 0
X(s(0)_w(2)_i(26)_t(0)) 0
X(s(0)_w(2)_i(26)_t(1)) 0
X(s(0)_w(3)_i(26)_t(0)) 0
X(s(0)_w(3)_i(26)_t(1)) 0
X(s(0)_w(0)_i(27)_t(0)) 0
X(s(0)_w(0)_i(27)_t(1)) 0
X(s(0)_w(1)_i(27)_t(0)) 0
X(s(0)_w(1)_i(27)_t(1)) 0
X(s(0)_w(3)_i(27)_t(0)) 0
X(s(0)_w(3)_i(27)_t(1)) 0
X(s(1)_w(0)_i(0)_t(0)) 0
X(s(1)_w(0)_i(0)_t(1)) 0
X(s(1)_w(1)_i(0)_t(0)) 0
X(s(1)_w(1)_i(0)_t(1)) 0
X(s(1)_w(2)_i(0)_t(0)) 0
X(s(1)_w(2)_i(0)_t(1)) 0
X(s(1)_w(3)_i(0)_t(0)) 0
X(s(1)_w(3)_i(0)_t(1)) 0
X(s(1)_w(0)_i(1)_t(0)) 0
X(s(1)_w(0)_i(1)_t(1)) 0
X(s(1)_w(1)_i(1)_t(0)) 0
X(s(1)_w(1)_i(1)_t(1)) 0
X(s(1)_w(2)_i(1)_t(0)) 1
X(s(1)_w(2)_i(1)_t(1)) 0
X(s(1)_w(0)_i(2)_t(0)) 0
X(s(1)_w(0)_i(2)_t(1)) 0
X(s(1)_w(1)_i(2)_t(0)) 0
X(s(1)_w(1)_i(2)_t(1)) 0
X(s(1)_w(2)_i(2)_t(0)) 1
X(s(1)_w(2)_i(2)_t(1)) 0
X(s(1)_w(3)_i(2)_t(0)) 0
X(s(1)_w(3)_i(2)_t(1)) 0
X(s(1)_w(0)_i(3)_t(0)) 0
X(s(1)_w(0)_i(3)_t(1)) 0
X(s(1)_w(1)_i(3)_t(0)) 0
X(s(1)_w(1)_i(3)_t(1)) 0
X(s(1)_w(2)_i(3)_t(0)) 0
X(s(1)_w(2)_i(3)_t(1)) 0
X(s(1)_w(3)_i(3)_t(0)) 0
X(s(1)_w(3)_i(3)_t(1)) 0
X(s(1)_w(0)_i(4)_t(0)) 0
X(s(1)_w(0)_i(4)_t(1)) 0
X(s(1)_w(1)_i(4)_t(0)) 0
X(s(1)_w(1)_i(4)_t(1)) 0
X(s(1)_w(2)_i(4)_t(0)) 0
X(s(1)_w(2)_i(4)_t(1)) 0
X(s(1)_w(0)_i(5)_t(0)) 0
X(s(1)_w(0)_i(5)_t(1)) 0
X(s(1)_w(1)_i(5)_t(0)) 0
X(s(1)_w(1)_i(5)_t(1)) 0
X(s(1)_w(2)_i(5)_t(0)) 1
X(s(1)_w(2)_i(5)_t(1)) 0
X(s(1)_w(3)_i(5)_t(0)) 0
X(s(1)_w(3)_i(5)_t(1)) 0
X(s(1)_w(0)_i(6)_t(0)) 0
X(s(1)_w(0)_i(6)_t(1)) 0
X(s(1)_w(1)_i(6)_t(0)) 0
X(s(1)_w(1)_i(6)_t(1)) 0
X(s(1)_w(2)_i(6)_t(0)) 1
X(s(1)_w(2)_i(6)_t(1)) 0
X(s(1)_w(3)_i(6)_t(0)) 0
X(s(1)_w(3)_i(6)_t(1)) 0
X(s(1)_w(0)_i(7)_t(0)) 0
X(s(1)_w(0)_i(7)_t(1)) 0
X(s(1)_w(1)_i(7)_t(0)) 0
X(s(1)_w(1)_i(7)_t(1)) 0
X(s(1)_w(2)_i(7)_t(0)) 0
X(s(1)_w(2)_i(7)_t(1)) 0
X(s(1)_w(3)_i(7)_t(0)) 0
X(s(1)_w(3)_i(7)_t(1)) 0
X(s(1)_w(0)_i(8)_t(0)) 0
X(s(1)_w(0)_i(8)_t(1)) 0
X(s(1)_w(1)_i(8)_t(0)) 0
X(s(1)_w(1)_i(8)_t(1)) 0
X(s(1)_w(2)_i(8)_t(0)) 0
X(s(1)_w(2)_i(8)_t(1)) 0
X(s(1)_w(3)_i(8)_t(0)) 0
X(s(1)_w(3)_i(8)_t(1)) 0
X(s(1)_w(0)_i(9)_t(0)) 0
X(s(1)_w(0)_i(9)_t(1)) 0
X(s(1)_w(1)_i(9)_t(0)) 0
X(s(1)_w(1)_i(9)_t(1)) 0
X(s(1)_w(2)_i(9)_t(0)) 0
X(s(1)_w(2)_i(9)_t(1)) 0
X(s(1)_w(0)_i(10)_t(0)) 0
X(s(1)_w(0)_i(10)_t(1)) 1
X(s(1)_w(1)_i(10)_t(0)) 0
X(s(1)_w(1)_i(10)_t(1)) 0
X(s(1)_w(2)_i(10)_t(0)) 0
X(s(1)_w(2)_i(10)_t(1)) 0
X(s(1)_w(3)_i(10)_t(0)) 0
X(s(1)_w(3)_i(10)_t(1)) 0
X(s(1)_w(0)_i(11)_t(0)) 0
X(s(1)_w(0)_i(11)_t(1)) 1
X(s(1)_w(1)_i(11)_t(0)) 0
X(s(1)_w(1)_i(11)_t(1)) 0
X(s(1)_w(2)_i(11)_t(0)) 1
X(s(1)_w(2)_i(11)_t(1)) 0
X(s(1)_w(0)_i(12)_t(0)) 0
X(s(1)_w(0)_i(12)_t(1)) 1
X(s(1)_w(1)_i(12)_t(0)) 0
X(s(1)_w(1)_i(12)_t(1)) 0
X(s(1)_w(3)_i(12)_t(0)) 0
X(s(1)_w(3)_i(12)_t(1)) 0
X(s(1)_w(0)_i(13)_t(0)) 0
X(s(1)_w(0)_i(13)_t(1)) 0
X(s(1)_w(1)_i(13)_t(0)) 0
X(s(1)_w(1)_i(13)_t(1)) 0
X(s(1)_w(2)_i(13)_t(0)) 0
X(s(1)_w(2)_i(13)_t(1)) 0
X(s(1)_w(3)_i(13)_t(0)) 0
X(s(1)_w(3)_i(13)_t(1)) 0
X(s(1)_w(0)_i(14)_t(0)) 0
X(s(1)_w(0)_i(14)_t(1)) 0
X(s(1)_w(1)_i(14)_t(0)) 0
X(s(1)_w(1)_i(14)_t(1)) 0
X(s(1)_w(2)_i(14)_t(0)) 0
X(s(1)_w(2)_i(14)_t(1)) 0
X(s(1)_w(3)_i(14)_t(0)) 0
X(s(1)_w(3)_i(14)_t(1)) 0
X(s(1)_w(0)_i(15)_t(0)) 0
X(s(1)_w(0)_i(15)_t(1)) 0
X(s(1)_w(1)_i(15)_t(0)) 0
X(s(1)_w(1)_i(15)_t(1)) 0
X(s(1)_w(3)_i(15)_t(0)) 0
X(s(1)_w(3)_i(15)_t(1)) 0
X(s(1)_w(0)_i(16)_t(0)) 0
X(s(1)_w(0)_i(16)_t(1)) 0
X(s(1)_w(1)_i(16)_t(0)) 0
X(s(1)_w(1)_i(16)_t(1)) 0
X(s(1)_w(2)_i(16)_t(0)) 1
X(s(1)_w(2)_i(16)_t(1)) 0
X(s(1)_w(3)_i(16)_t(0)) 0
X(s(1)_w(3)_i(16)_t(1)) 0
X(s(1)_w(0)_i(17)_t(0)) 0
X(s(1)_w(0)_i(17)_t(1)) 0
X(s(1)_w(1)_i(17)_t(0)) 0
X(s(1)_w(1)_i(17)_t(1)) 0
X(s(1)_w(2)_i(17)_t(0)) 0
X(s(1)_w(2)_i(17)_t(1)) 0
X(s(1)_w(3)_i(17)_t(0)) 0
X(s(1)_w(3)_i(17)_t(1)) 0
X(s(1)_w(0)_i(18)_t(0)) 0
X(s(1)_w(0)_i(18)_t(1)) 0
X(s(1)_w(1)_i(18)_t(0)) 0
X(s(1)_w(1)_i(18)_t(1)) 0
X(s(1)_w(2)_i(18)_t(0)) 0
X(s(1)_w(2)_i(18)_t(1)) 0
X(s(1)_w(3)_i(18)_t(0)) 0
X(s(1)_w(3)_i(18)_t(1)) 0
X(s(1)_w(0)_i(19)_t(0)) 0
X(s(1)_w(0)_i(19)_t(1)) 0
X(s(1)_w(1)_i(19)_t(0)) 0
X(s(1)_w(1)_i(19)_t(1)) 0
X(s(1)_w(2)_i(19)_t(0)) 0
X(s(1)_w(2)_i(19)_t(1)) 0
X(s(1)_w(0)_i(20)_t(0)) 0
X(s(1)_w(0)_i(20)_t(1)) 0
X(s(1)_w(1)_i(20)_t(0)) 0
X(s(1)_w(1)_i(20)_t(1)) 0
X(s(1)_w(2)_i(20)_t(0)) 0
X(s(1)_w(2)_i(20)_t(1)) 0
X(s(1)_w(3)_i(20)_t(0)) 0
X(s(1)_w(3)_i(20)_t(1)) 0
X(s(1)_w(0)_i(21)_t(0)) 0
X(s(1)_w(0)_i(21)_t(1)) 0
X(s(1)_w(1)_i(21)_t(0)) 0
X(s(1)_w(1)_i(21)_t(1)) 0
X(s(1)_w(2)_i(21)_t(0)) 0
X(s(1)_w(2)_i(21)_t(1)) 0
X(s(1)_w(3)_i(21)_t(0)) 0
X(s(1)_w(3)_i(21)_t(1)) 0
X(s(1)_w(0)_i(22)_t(0)) 0
X(s(1)_w(0)_i(22)_t(1)) 0
X(s(1)_w(1)_i(22)_t(0)) 0
X(s(1)_w(1)_i(22)_t(1)) 0
X(s(1)_w(2)_i(22)_t(0)) 0
X(s(1)_w(2)_i(22)_t(1)) 0
X(s(1)_w(3)_i(22)_t(0)) 0
X(s(1)_w(3)_i(22)_t(1)) 0
X(s(1)_w(0)_i(23)_t(0)) 0
X(s(1)_w(0)_i(23)_t(1)) 1
X(s(1)_w(3)_i(23)_t(0)) 0
X(s(1)_w(3)_i(23)_t(1)) 0
X(s(1)_w(0)_i(24)_t(0)) 0
X(s(1)_w(0)_i(24)_t(1)) 0
X(s(1)_w(1)_i(24)_t(0)) 0
X(s(1)_w(1)_i(24)_t(1)) 0
X(s(1)_w(2)_i(24)_t(0)) 0
X(s(1)_w(2)_i(24)_t(1)) 0
X(s(1)_w(3)_i(24)_t(0)) 0
X(s(1)_w(3)_i(24)_t(1)) 0
X(s(1)_w(0)_i(25)_t(0)) 0
X(s(1)_w(0)_i(25)_t(1)) 0
X(s(1)_w(1)_i(25)_t(0)) 0
X(s(1)_w(1)_i(25)_t(1)) 0
X(s(1)_w(3)_i(25)_t(0)) 0
X(s(1)_w(3)_i(25)_t(1)) 0
X(s(1)_w(0)_i(26)_t(0)) 0
X(s(1)_w(0)_i(26)_t(1)) 0
X(s(1)_w(1)_i(26)_t(0)) 0
X(s(1)_w(1)_i(26)_t(1)) 0
X(s(1)_w(2)_i(26)_t(0)) 1
X(s(1)_w(2)_i(26)_t(1)) 0
X(s(1)_w(3)_i(26)_t(0)) 0
X(s(1)_w(3)_i(26)_t(1)) 0
X(s(1)_w(0)_i(27)_t(0)) 0
X(s(1)_w(0)_i(27)_t(1)) 0
X(s(1)_w(1)_i(27)_t(0)) 0
X(s(1)_w(1)_i(27)_t(1)) 0
X(s(1)_w(3)_i(27)_t(0)) 0
X(s(1)_w(3)_i(27)_t(1)) 0
X(s(2)_w(0)_i(0)_t(0)) 0
X(s(2)_w(0)_i(0)_t(1)) 0
X(s(2)_w(1)_i(0)_t(0)) 0
X(s(2)_w(1)_i(0)_t(1)) 0
X(s(2)_w(2)_i(0)_t(0)) 0
X(s(2)_w(2)_i(0)_t(1)) 0
X(s(2)_w(3)_i(0)_t(0)) 0
X(s(2)_w(3)_i(0)_t(1)) 0
X(s(2)_w(0)_i(1)_t(0)) 0
X(s(2)_w(0)_i(1)_t(1)) 0
X(s(2)_w(1)_i(1)_t(0)) 0
X(s(2)_w(1)_i(1)_t(1)) 0
X(s(2)_w(2)_i(1)_t(0)) 0
X(s(2)_w(2)_i(1)_t(1)) 0
X(s(2)_w(0)_i(2)_t(0)) 0
X(s(2)_w(0)_i(2)_t(1)) 0
X(s(2)_w(1)_i(2)_t(0)) 0
X(s(2)_w(1)_i(2)_t(1)) 0
X(s(2)_w(2)_i(2)_t(0)) 0
X(s(2)_w(2)_i(2)_t(1)) 0
X(s(2)_w(3)_i(2)_t(0)) 0
X(s(2)_w(3)_i(2)_t(1)) 1
X(s(2)_w(0)_i(3)_t(0)) 0
X(s(2)_w(0)_i(3)_t(1)) 0
X(s(2)_w(1)_i(3)_t(0)) 0
X(s(2)_w(1)_i(3)_t(1)) 0
X(s(2)_w(2)_i(3)_t(0)) 0
X(s(2)_w(2)_i(3)_t(1)) 0
X(s(2)_w(3)_i(3)_t(0)) 0
X(s(2)_w(3)_i(3)_t(1)) 0
X(s(2)_w(0)_i(4)_t(0)) 0
X(s(2)_w(0)_i(4)_t(1)) 0
X(s(2)_w(1)_i(4)_t(0)) 0
X(s(2)_w(1)_i(4)_t(1)) 0
X(s(2)_w(2)_i(4)_t(0)) 0
X(s(2)_w(2)_i(4)_t(1)) 0
X(s(2)_w(0)_i(5)_t(0)) 0
X(s(2)_w(0)_i(5)_t(1)) 0
X(s(2)_w(1)_i(5)_t(0)) 0
X(s(2)_w(1)_i(5)_t(1)) 0
X(s(2)_w(2)_i(5)_t(0)) 0
X(s(2)_w(2)_i(5)_t(1)) 0
X(s(2)_w(3)_i(5)_t(0)) 0
X(s(2)_w(3)_i(5)_t(1)) 0
X(s(2)_w(0)_i(6)_t(0)) 0
X(s(2)_w(0)_i(6)_t(1)) 0
X(s(2)_w(1)_i(6)_t(0)) 0
X(s(2)_w(1)_i(6)_t(1)) 0
X(s(2)_w(2)_i(6)_t(0)) 0
X(s(2)_w(2)_i(6)_t(1)) 0
X(s(2)_w(3)_i(6)_t(0)) 0
X(s(2)_w(3)_i(6)_t(1)) 0
X(s(2)_w(0)_i(7)_t(0)) 0
X(s(2)_w(0)_i(7)_t(1)) 0
X(s(2)_w(1)_i(7)_t(0)) 0
X(s(2)_w(1)_i(7)_t(1)) 0
X(s(2)_w(2)_i(7)_t(0)) 0
X(s(2)_w(2)_i(7)_t(1)) 0
X(s(2)_w(3)_i(7)_t(0)) 0
X(s(2)_w(3)_i(7)_t(1)) 0
X(s(2)_w(0)_i(8)_t(0)) 0
X(s(2)_w(0)_i(8)_t(1)) 0
X(s(2)_w(1)_i(8)_t(0)) 0
X(s(2)_w(1)_i(8)_t(1)) 0
X(s(2)_w(2)_i(8)_t(0)) 0
X(s(2)_w(2)_i(8)_t(1)) 0
X(s(2)_w(3)_i(8)_t(0)) 0
X(s(2)_w(3)_i(8)_t(1)) 0
X(s(2)_w(0)_i(9)_t(0)) 0
X(s(2)_w(0)_i(9)_t(1)) 0
X(s(2)_w(1)_i(9)_t(0)) 0
X(s(2)_w(1)_i(9)_t(1)) 0
X(s(2)_w(2)_i(9)_t(0)) 0
X(s(2)_w(2)_i(9)_t(1)) 0
X(s(2)_w(0)_i(10)_t(0)) 0
X(s(2)_w(0)_i(10)_t(1)) 0
X(s(2)_w(1)_i(10)_t(0)) 0
X(s(2)_w(1)_i(10)_t(1)) 0
X(s(2)_w(2)_i(10)_t(0)) 0
X(s(2)_w(2)_i(10)_t(1)) 0
X(s(2)_w(3)_i(10)_t(0)) 1
X(s(2)_w(3)_i(10)_t(1)) 0
X(s(2)_w(0)_i(11)_t(0)) 0
X(s(2)_w(0)_i(11)_t(1)) 0
X(s(2)_w(1)_i(11)_t(0)) 0
X(s(2)_w(1)_i(11)_t(1)) 0
X(s(2)_w(2)_i(11)_t(0)) 0
X(s(2)_w(2)_i(11)_t(1)) 0
X(s(2)_w(0)_i(12)_t(0)) 0
X(s(2)_w(0)_i(12)_t(1)) 0
X(s(2)_w(1)_i(12)_t(0)) 0
X(s(2)_w(1)_i(12)_t(1)) 0
X(s(2)_w(3)_i(12)_t(0)) 1
X(s(2)_w(3)_i(12)_t(1)) 0
X(s(2)_w(0)_i(13)_t(0)) 0
X(s(2)_w(0)_i(13)_t(1)) 0
X(s(2)_w(1)_i(13)_t(0)) 0
X(s(2)_w(1)_i(13)_t(1)) 0
X(s(2)_w(2)_i(13)_t(0)) 0
X(s(2)_w(2)_i(13)_t(1)) 0
X(s(2)_w(3)_i(13)_t(0)) 0
X(s(2)_w(3)_i(13)_t(1)) 0
X(s(2)_w(0)_i(14)_t(0)) 0
X(s(2)_w(0)_i(14)_t(1)) 0
X(s(2)_w(1)_i(14)_t(0)) 0
X(s(2)_w(1)_i(14)_t(1)) 0
X(s(2)_w(2)_i(14)_t(0)) 0
X(s(2)_w(2)_i(14)_t(1)) 0
X(s(2)_w(3)_i(14)_t(0)) 0
X(s(2)_w(3)_i(14)_t(1)) 1
X(s(2)_w(0)_i(15)_t(0)) 0
X(s(2)_w(0)_i(15)_t(1)) 0
X(s(2)_w(1)_i(15)_t(0)) 0
X(s(2)_w(1)_i(15)_t(1)) 0
X(s(2)_w(3)_i(15)_t(0)) 1
X(s(2)_w(3)_i(15)_t(1)) 0
X(s(2)_w(0)_i(16)_t(0)) 0
X(s(2)_w(0)_i(16)_t(1)) 0
X(s(2)_w(1)_i(16)_t(0)) 0
X(s(2)_w(1)_i(16)_t(1)) 0
X(s(2)_w(2)_i(16)_t(0)) 0
X(s(2)_w(2)_i(16)_t(1)) 0
X(s(2)_w(3)_i(16)_t(0)) 0
X(s(2)_w(3)_i(16)_t(1)) 0
X(s(2)_w(0)_i(17)_t(0)) 0
X(s(2)_w(0)_i(17)_t(1)) 0
X(s(2)_w(1)_i(17)_t(0)) 0
X(s(2)_w(1)_i(17)_t(1)) 0
X(s(2)_w(2)_i(17)_t(0)) 0
X(s(2)_w(2)_i(17)_t(1)) 0
X(s(2)_w(3)_i(17)_t(0)) 1
X(s(2)_w(3)_i(17)_t(1)) 0
X(s(2)_w(0)_i(18)_t(0)) 0
X(s(2)_w(0)_i(18)_t(1)) 0
X(s(2)_w(1)_i(18)_t(0)) 0
X(s(2)_w(1)_i(18)_t(1)) 0
X(s(2)_w(2)_i(18)_t(0)) 0
X(s(2)_w(2)_i(18)_t(1)) 0
X(s(2)_w(3)_i(18)_t(0)) 0
X(s(2)_w(3)_i(18)_t(1)) 1
X(s(2)_w(0)_i(19)_t(0)) 0
X(s(2)_w(0)_i(19)_t(1)) 0
X(s(2)_w(1)_i(19)_t(0)) 0
X(s(2)_w(1)_i(19)_t(1)) 0
X(s(2)_w(2)_i(19)_t(0)) 0
X(s(2)_w(2)_i(19)_t(1)) 0
X(s(2)_w(0)_i(20)_t(0)) 0
X(s(2)_w(0)_i(20)_t(1)) 0
X(s(2)_w(1)_i(20)_t(0)) 0
X(s(2)_w(1)_i(20)_t(1)) 0
X(s(2)_w(2)_i(20)_t(0)) 0
X(s(2)_w(2)_i(20)_t(1)) 0
X(s(2)_w(3)_i(20)_t(0)) 1
X(s(2)_w(3)_i(20)_t(1)) 0
X(s(2)_w(0)_i(21)_t(0)) 0
X(s(2)_w(0)_i(21)_t(1)) 0
X(s(2)_w(1)_i(21)_t(0)) 0
X(s(2)_w(1)_i(21)_t(1)) 0
X(s(2)_w(2)_i(21)_t(0)) 0
X(s(2)_w(2)_i(21)_t(1)) 0
X(s(2)_w(3)_i(21)_t(0)) 0
X(s(2)_w(3)_i(21)_t(1)) 0
X(s(2)_w(0)_i(22)_t(0)) 0
X(s(2)_w(0)_i(22)_t(1)) 0
X(s(2)_w(1)_i(22)_t(0)) 0
X(s(2)_w(1)_i(22)_t(1)) 0
X(s(2)_w(2)_i(22)_t(0)) 0
X(s(2)_w(2)_i(22)_t(1)) 0
X(s(2)_w(3)_i(22)_t(0)) 0
X(s(2)_w(3)_i(22)_t(1)) 0
X(s(2)_w(0)_i(23)_t(0)) 0
X(s(2)_w(0)_i(23)_t(1)) 0
X(s(2)_w(3)_i(23)_t(0)) 1
X(s(2)_w(3)_i(23)_t(1)) 0
X(s(2)_w(0)_i(24)_t(0)) 0
X(s(2)_w(0)_i(24)_t(1)) 0
X(s(2)_w(1)_i(24)_t(0)) 0
X(s(2)_w(1)_i(24)_t(1)) 0
X(s(2)_w(2)_i(24)_t(0)) 0
X(s(2)_w(2)_i(24)_t(1)) 0
X(s(2)_w(3)_i(24)_t(0)) 0
X(s(2)_w(3)_i(24)_t(1)) 1
X(s(2)_w(0)_i(25)_t(0)) 0
X(s(2)_w(0)_i(25)_t(1)) 0
X(s(2)_w(1)_i(25)_t(0)) 0
X(s(2)_w(1)_i(25)_t(1)) 0
X(s(2)_w(3)_i(25)_t(0)) 0
X(s(2)_w(3)_i(25)_t(1)) 1
X(s(2)_w(0)_i(26)_t(0)) 0
X(s(2)_w(0)_i(26)_t(1)) 0
X(s(2)_w(1)_i(26)_t(0)) 0
X(s(2)_w(1)_i(26)_t(1)) 0
X(s(2)_w(2)_i(26)_t(0)) 0
X(s(2)_w(2)_i(26)_t(1)) 0
X(s(2)_w(3)_i(26)_t(0)) 0
X(s(2)_w(3)_i(26)_t(1)) 1
X(s(2)_w(0)_i(27)_t(0)) 0
X(s(2)_w(0)_i(27)_t(1)) 0
X(s(2)_w(1)_i(27)_t(0)) 0
X(s(2)_w(1)_i(27)_t(1)) 0
X(s(2)_w(3)_i(27)_t(0)) 0
X(s(2)_w(3)_i(27)_t(1)) 0
X(s(3)_w(0)_i(0)_t(0)) 0
X(s(3)_w(0)_i(0)_t(1)) 0
X(s(3)_w(1)_i(0)_t(0)) 0
X(s(3)_w(1)_i(0)_t(1)) 0
X(s(3)_w(2)_i(0)_t(0)) 0
X(s(3)_w(2)_i(0)_t(1)) 0
X(s(3)_w(3)_i(0)_t(0)) 0
X(s(3)_w(3)_i(0)_t(1)) 0
X(s(3)_w(0)_i(1)_t(0)) 0
X(s(3)_w(0)_i(1)_t(1)) 0
X(s(3)_w(1)_i(1)_t(0)) 0
X(s(3)_w(1)_i(1)_t(1)) 1
X(s(3)_w(2)_i(1)_t(0)) 0
X(s(3)_w(2)_i(1)_t(1)) 0
X(s(3)_w(0)_i(2)_t(0)) 0
X(s(3)_w(0)_i(2)_t(1)) 0
X(s(3)_w(1)_i(2)_t(0)) 0
X(s(3)_w(1)_i(2)_t(1)) 0
X(s(3)_w(2)_i(2)_t(0)) 0
X(s(3)_w(2)_i(2)_t(1)) 0
X(s(3)_w(3)_i(2)_t(0)) 0
X(s(3)_w(3)_i(2)_t(1)) 0
X(s(3)_w(0)_i(3)_t(0)) 0
X(s(3)_w(0)_i(3)_t(1)) 0
X(s(3)_w(1)_i(3)_t(0)) 0
X(s(3)_w(1)_i(3)_t(1)) 1
X(s(3)_w(2)_i(3)_t(0)) 0
X(s(3)_w(2)_i(3)_t(1)) 0
X(s(3)_w(3)_i(3)_t(0)) 0
X(s(3)_w(3)_i(3)_t(1)) 0
X(s(3)_w(0)_i(4)_t(0)) 0
X(s(3)_w(0)_i(4)_t(1)) 0
X(s(3)_w(1)_i(4)_t(0)) 0
X(s(3)_w(1)_i(4)_t(1)) 0
X(s(3)_w(2)_i(4)_t(0)) 0
X(s(3)_w(2)_i(4)_t(1)) 0
X(s(3)_w(0)_i(5)_t(0)) 0
X(s(3)_w(0)_i(5)_t(1)) 0
X(s(3)_w(1)_i(5)_t(0)) 0
X(s(3)_w(1)_i(5)_t(1)) 1
X(s(3)_w(2)_i(5)_t(0)) 0
X(s(3)_w(2)_i(5)_t(1)) 0
X(s(3)_w(3)_i(5)_t(0)) 0
X(s(3)_w(3)_i(5)_t(1)) 0
X(s(3)_w(0)_i(6)_t(0)) 0
X(s(3)_w(0)_i(6)_t(1)) 0
X(s(3)_w(1)_i(6)_t(0)) 0
X(s(3)_w(1)_i(6)_t(1)) 1
X(s(3)_w(2)_i(6)_t(0)) 0
X(s(3)_w(2)_i(6)_t(1)) 0
X(s(3)_w(3)_i(6)_t(0)) 0
X(s(3)_w(3)_i(6)_t(1)) 0
X(s(3)_w(0)_i(7)_t(0)) 0
X(s(3)_w(0)_i(7)_t(1)) 0
X(s(3)_w(1)_i(7)_t(0)) 0
X(s(3)_w(1)_i(7)_t(1)) 0
X(s(3)_w(2)_i(7)_t(0)) 0
X(s(3)_w(2)_i(7)_t(1)) 0
X(s(3)_w(3)_i(7)_t(0)) 0
X(s(3)_w(3)_i(7)_t(1)) 0
X(s(3)_w(0)_i(8)_t(0)) 0
X(s(3)_w(0)_i(8)_t(1)) 0
X(s(3)_w(1)_i(8)_t(0)) 0
X(s(3)_w(1)_i(8)_t(1)) 0
X(s(3)_w(2)_i(8)_t(0)) 0
X(s(3)_w(2)_i(8)_t(1)) 0
X(s(3)_w(3)_i(8)_t(0)) 0
X(s(3)_w(3)_i(8)_t(1)) 0
X(s(3)_w(0)_i(9)_t(0)) 0
X(s(3)_w(0)_i(9)_t(1)) 0
X(s(3)_w(1)_i(9)_t(0)) 0
X(s(3)_w(1)_i(9)_t(1)) 0
X(s(3)_w(2)_i(9)_t(0)) 0
X(s(3)_w(2)_i(9)_t(1)) 0
X(s(3)_w(0)_i(10)_t(0)) 0
X(s(3)_w(0)_i(10)_t(1)) 0
X(s(3)_w(1)_i(10)_t(0)) 0
X(s(3)_w(1)_i(10)_t(1)) 0
X(s(3)_w(2)_i(10)_t(0)) 0
X(s(3)_w(2)_i(10)_t(1)) 0
X(s(3)_w(3)_i(10)_t(0)) 0
X(s(3)_w(3)_i(10)_t(1)) 0
X(s(3)_w(0)_i(11)_t(0)) 0
X(s(3)_w(0)_i(11)_t(1)) 0
X(s(3)_w(1)_i(11)_t(0)) 0
X(s(3)_w(1)_i(11)_t(1)) 0
X(s(3)_w(2)_i(11)_t(0)) 0
X(s(3)_w(2)_i(11)_t(1)) 0
X(s(3)_w(0)_i(12)_t(0)) 0
X(s(3)_w(0)_i(12)_t(1)) 0
X(s(3)_w(1)_i(12)_t(0)) 0
X(s(3)_w(1)_i(12)_t(1)) 0
X(s(3)_w(3)_i(12)_t(0)) 0
X(s(3)_w(3)_i(12)_t(1)) 0
X(s(3)_w(0)_i(13)_t(0)) 0
X(s(3)_w(0)_i(13)_t(1)) 0
X(s(3)_w(1)_i(13)_t(0)) 1
X(s(3)_w(1)_i(13)_t(1)) 1
X(s(3)_w(2)_i(13)_t(0)) 0
X(s(3)_w(2)_i(13)_t(1)) 0
X(s(3)_w(3)_i(13)_t(0)) 0
X(s(3)_w(3)_i(13)_t(1)) 0
X(s(3)_w(0)_i(14)_t(0)) 0
X(s(3)_w(0)_i(14)_t(1)) 0
X(s(3)_w(1)_i(14)_t(0)) 1
X(s(3)_w(1)_i(14)_t(1)) 0
X(s(3)_w(2)_i(14)_t(0)) 0
X(s(3)_w(2)_i(14)_t(1)) 0
X(s(3)_w(3)_i(14)_t(0)) 0
X(s(3)_w(3)_i(14)_t(1)) 0
X(s(3)_w(0)_i(15)_t(0)) 0
X(s(3)_w(0)_i(15)_t(1)) 0
X(s(3)_w(1)_i(15)_t(0)) 0
X(s(3)_w(1)_i(15)_t(1)) 1
X(s(3)_w(3)_i(15)_t(0)) 0
X(s(3)_w(3)_i(15)_t(1)) 0
X(s(3)_w(0)_i(16)_t(0)) 0
X(s(3)_w(0)_i(16)_t(1)) 0
X(s(3)_w(1)_i(16)_t(0)) 0
X(s(3)_w(1)_i(16)_t(1)) 1
X(s(3)_w(2)_i(16)_t(0)) 0
X(s(3)_w(2)_i(16)_t(1)) 0
X(s(3)_w(3)_i(16)_t(0)) 0
X(s(3)_w(3)_i(16)_t(1)) 0
X(s(3)_w(0)_i(17)_t(0)) 0
X(s(3)_w(0)_i(17)_t(1)) 0
X(s(3)_w(1)_i(17)_t(0)) 0
X(s(3)_w(1)_i(17)_t(1)) 1
X(s(3)_w(2)_i(17)_t(0)) 0
X(s(3)_w(2)_i(17)_t(1)) 0
X(s(3)_w(3)_i(17)_t(0)) 0
X(s(3)_w(3)_i(17)_t(1)) 0
X(s(3)_w(0)_i(18)_t(0)) 0
X(s(3)_w(0)_i(18)_t(1)) 0
X(s(3)_w(1)_i(18)_t(0)) 1
X(s(3)_w(1)_i(18)_t(1)) 0
X(s(3)_w(2)_i(18)_t(0)) 0
X(s(3)_w(2)_i(18)_t(1)) 0
X(s(3)_w(3)_i(18)_t(0)) 0
X(s(3)_w(3)_i(18)_t(1)) 0
X(s(3)_w(0)_i(19)_t(0)) 0
X(s(3)_w(0)_i(19)_t(1)) 0
X(s(3)_w(1)_i(19)_t(0)) 1
X(s(3)_w(1)_i(19)_t(1)) 1
X(s(3)_w(2)_i(19)_t(0)) 0
X(s(3)_w(2)_i(19)_t(1)) 0
X(s(3)_w(0)_i(20)_t(0)) 0
X(s(3)_w(0)_i(20)_t(1)) 0
X(s(3)_w(1)_i(20)_t(0)) 0
X(s(3)_w(1)_i(20)_t(1)) 1
X(s(3)_w(2)_i(20)_t(0)) 0
X(s(3)_w(2)_i(20)_t(1)) 0
X(s(3)_w(3)_i(20)_t(0)) 0
X(s(3)_w(3)_i(20)_t(1)) 0
X(s(3)_w(0)_i(21)_t(0)) 0
X(s(3)_w(0)_i(21)_t(1)) 0
X(s(3)_w(1)_i(21)_t(0)) 0
X(s(3)_w(1)_i(21)_t(1)) 1
X(s(3)_w(2)_i(21)_t(0)) 0
X(s(3)_w(2)_i(21)_t(1)) 0
X(s(3)_w(3)_i(21)_t(0)) 0
X(s(3)_w(3)_i(21)_t(1)) 0
X(s(3)_w(0)_i(22)_t(0)) 0
X(s(3)_w(0)_i(22)_t(1)) 0
X(s(3)_w(1)_i(22)_t(0)) 1
X(s(3)_w(1)_i(22)_t(1)) 0
X(s(3)_w(2)_i(22)_t(0)) 0
X(s(3)_w(2)_i(22)_t(1)) 0
X(s(3)_w(3)_i(22)_t(0)) 0
X(s(3)_w(3)_i(22)_t(1)) 0
X(s(3)_w(0)_i(23)_t(0)) 0
X(s(3)_w(0)_i(23)_t(1)) 0
X(s(3)_w(3)_i(23)_t(0)) 0
X(s(3)_w(3)_i(23)_t(1)) 0
X(s(3)_w(0)_i(24)_t(0)) 0
X(s(3)_w(0)_i(24)_t(1)) 0
X(s(3)_w(1)_i(24)_t(0)) 1
X(s(3)_w(1)_i(24)_t(1)) 0
X(s(3)_w(2)_i(24)_t(0)) 0
X(s(3)_w(2)_i(24)_t(1)) 0
X(s(3)_w(3)_i(24)_t(0)) 0
X(s(3)_w(3)_i(24)_t(1)) 0
X(s(3)_w(0)_i(25)_t(0)) 0
X(s(3)_w(0)_i(25)_t(1)) 0
X(s(3)_w(1)_i(25)_t(0)) 0
X(s(3)_w(1)_i(25)_t(1)) 0
X(s(3)_w(3)_i(25)_t(0)) 0
X(s(3)_w(3)_i(25)_t(1)) 0
X(s(3)_w(0)_i(26)_t(0)) 0
X(s(3)_w(0)_i(26)_t(1)) 0
X(s(3)_w(1)_i(26)_t(0)) 0
X(s(3)_w(1)_i(26)_t(1)) 0
X(s(3)_w(2)_i(26)_t(0)) 0
X(s(3)_w(2)_i(26)_t(1)) 0
X(s(3)_w(3)_i(26)_t(0)) 0
X(s(3)_w(3)_i(26)_t(1)) 0
X(s(3)_w(0)_i(27)_t(0)) 0
X(s(3)_w(0)_i(27)_t(1)) 0
X(s(3)_w(1)_i(27)_t(0)) 1
X(s(3)_w(1)_i(27)_t(1)) 1
X(s(3)_w(3)_i(27)_t(0)) 0
X(s(3)_w(3)_i(27)_t(1)) 0
Y(s(0)_w(0)_t(0)) 1
Y(s(0)_w(0)_t(1)) 0
Y(s(0)_w(1)_t(0)) 0
Y(s(0)_w(1)_t(1)) 0
Y(s(0)_w(2)_t(0)) 0
Y(s(0)_w(2)_t(1)) 1
Y(s(0)_w(3)_t(0)) 0
Y(s(0)_w(3)_t(1)) 0
Y(s(1)_w(0)_t(0)) 0
Y(s(1)_w(0)_t(1)) 1
Y(s(1)_w(1)_t(0)) 0
Y(s(1)_w(1)_t(1)) 0
Y(s(1)_w(2)_t(0)) 1
Y(s(1)_w(2)_t(1)) 0
Y(s(1)_w(3)_t(0)) 0
Y(s(1)_w(3)_t(1)) 0
Y(s(2)_w(0)_t(0)) 0
Y(s(2)_w(0)_t(1)) 0
Y(s(2)_w(1)_t(0)) 0
Y(s(2)_w(1)_t(1)) 0
Y(s(2)_w(2)_t(0)) 0
Y(s(2)_w(2)_t(1)) 0
Y(s(2)_w(3)_t(0)) 1
Y(s(2)_w(3)_t(1)) 1
Y(s(3)_w(0)_t(0)) 0
Y(s(3)_w(0)_t(1)) 0
Y(s(3)_w(1)_t(0)) 1
Y(s(3)_w(1)_t(1)) 1
Y(s(3)_w(2)_t(0)) 0
Y(s(3)_w(2)_t(1)) 0
Y(s(3)_w(3)_t(0)) 0
Y(s(3)_w(3)_t(1)) 0
C(t(0)) 242
C(t(1)) 170
